/* Objective function */
max: +t;

/* Constraints */
+pi1 +pi2 +pi3 +pi4 +pi5 -t >= 0;
+pi1 +pi2 +pi3 +0.900010287762 pi4 +pi5 -t >= 0;
+pi1 +pi2 +pi3 +pi4 +pi5 -t >= 0;
+pi1 +10.8975124359 pi2 +pi3 +pi4 +pi5 -t >= 0;
+pi1 +pi2 +pi3 +pi4 +pi5 -t >= 0;
+pi1 +pi2 +pi3 +pi4 +pi5 = 1;
